
        $ From http://www.csplib.org/Problems/prob009/data/helmut.pdf
        $ Problem number 34
        $ Sequence length : 24
        language ESSENCE' 1.0
        letting sizemaster be 288
        letting sizes be sequence(1,5,7,8,9,14,17,20,21,26,30,32,34,36,48,51,54,59,64,69,72,93,123,165)
        